--------------------------------------------------------------------------------(Solver execution current time: 0.00017142295837402344)
[INFO] Input Seed : 6436979
--------------------------------------------------------------------------------(Solver execution current time: 0.0002067089080810547)
[INFO] Input time limit : 30
--------------------------------------------------------------------------------(Solver execution current time: 0.0002307891845703125)
[INFO] Command line arguments read with no errors.
--------------------------------------------------------------------------------(Solver execution current time: 0.0334324836730957)
[INFO] Input file read with no errors.
--------------------------------------------------------------------------------(Solver execution current time: 0.03354811668395996)
[INFO] Starting solver.
--------------------------------------------------------------------------------(Solver execution current time: 0.033605337142944336)
[INFO] Starting construction
--------------------------------------------------------------------------------(Solver execution current time: 11.01177453994751)
[INFO] Finished construction
--------------------------------------------------------------------------------(Solver execution current time: 11.01187801361084)
[SOLUTION]
Basic Greedy Heuristic
Exec Time: 10.978165864944458
obj_value: -68; obj_routes: 29477.0
Route 1 : 32 55 40 1 130 115 13 53 14 107 76 22 48 88 89 70 2 128 123 145 63 77 138 97 50 125 64 139 
Route 2 : 6 33 52 42 81 108 10 60 135 11 117 68 31 41 127 106 116 86 51 126 85 143 74 23 149 46 121 69 35 144 5 98 80 110 
Route 3 : 9 4 3 84 59 12 27 87 79 134 78 54 28 103 102 129 43 65 118 47 140 122 
Route 4 : 73 148 62 56 49 39 131 137 19 18 124 114 94 93 30 37 112 45 120 105 7 29 82 104 
Route 5 : 38 113 24 67 99 61 136 8 83 15 90 142 
Route 6 : 16 75 25 150 44 91 100 34 119 109 
Route 7 : 58 133 36 72 147 111 
Route 8 : 
Route 9 : 
Route 10 : 
Route 11 : 
Route 12 : 
Route 13 : 
Route 14 : 
Route 15 : 
Route 16 : 
Route 17 : 
Route 18 : 
Route 19 : 
Route 20 : 
Route 21 : 

--------------------------------------------------------------------------------(Solver execution current time: 11.013078927993774)
[SOLUTION]
Solution after BasicGreedyLimitedHeterogeneousFleet
obj_value: -68; obj_routes: 29477.0
Route 1 : 32 55 40 1 130 115 13 53 14 107 76 22 48 88 89 70 2 128 123 145 63 77 138 97 50 125 64 139 
Route 2 : 6 33 52 42 81 108 10 60 135 11 117 68 31 41 127 106 116 86 51 126 85 143 74 23 149 46 121 69 35 144 5 98 80 110 
Route 3 : 9 4 3 84 59 12 27 87 79 134 78 54 28 103 102 129 43 65 118 47 140 122 
Route 4 : 73 148 62 56 49 39 131 137 19 18 124 114 94 93 30 37 112 45 120 105 7 29 82 104 
Route 5 : 38 113 24 67 99 61 136 8 83 15 90 142 
Route 6 : 16 75 25 150 44 91 100 34 119 109 
Route 7 : 58 133 36 72 147 111 
Route 8 : 
Route 9 : 
Route 10 : 
Route 11 : 
Route 12 : 
Route 13 : 
Route 14 : 
Route 15 : 
Route 16 : 
Route 17 : 
Route 18 : 
Route 19 : 
Route 20 : 
Route 21 : 

--------------------------------------------------------------------------------(Solver execution current time: 11.013408422470093)
[INFO] Starting metaheuristic
--------------------------------------------------------------------------------(Solver execution current time: 11.016841411590576)
[INFO] AGES EXCLUDED
--------------------------------------------------------------------------------(Solver execution current time: 11.018463373184204)
[INFO] Starting LNS
--------------------------------------------------------------------------------(Solver execution current time: 12.118144750595093)
[SOLUTION]
LNS
IT: 40
Exec Time: 1.0974655151367188
obj_value: -68; obj_routes: 29477.0
Route 1 : 32 55 40 1 130 115 13 53 14 107 76 22 48 88 89 70 2 128 123 145 63 77 138 97 50 125 64 139 
Route 2 : 6 33 52 42 81 108 10 60 135 11 117 68 31 41 127 106 116 86 51 126 85 143 74 23 149 46 121 69 35 144 5 98 80 110 
Route 3 : 9 4 3 84 59 12 27 87 79 134 78 54 28 103 102 129 43 65 118 47 140 122 
Route 4 : 73 148 62 56 49 39 131 137 19 18 124 114 94 93 30 37 112 45 120 105 7 29 82 104 
Route 5 : 38 113 24 67 99 61 136 8 83 15 90 142 
Route 6 : 16 75 25 150 44 91 100 34 119 109 
Route 7 : 58 133 36 72 147 111 
Route 8 : 
Route 9 : 
Route 10 : 
Route 11 : 
Route 12 : 
Route 13 : 
Route 14 : 
Route 15 : 
Route 16 : 
Route 17 : 
Route 18 : 
Route 19 : 
Route 20 : 
Route 21 : 

--------------------------------------------------------------------------------(Solver execution current time: 12.120087385177612)
[INFO] Starting PartitionMaxRequestsHF
--------------------------------------------------------------------------------(Solver execution current time: 12.173110246658325)
[SOLUTION]
PartitionMaxRequestsHF
Exec Time: 0.05296635627746582
obj_value: -68; obj_routes: 29477.0
Route 1 : 32 55 40 1 130 115 13 53 14 107 76 22 48 88 89 70 2 128 123 145 63 77 138 97 50 125 64 139 
Route 2 : 6 33 52 42 81 108 10 60 135 11 117 68 31 41 127 106 116 86 51 126 85 143 74 23 149 46 121 69 35 144 5 98 80 110 
Route 3 : 9 4 3 84 59 12 27 87 79 134 78 54 28 103 102 129 43 65 118 47 140 122 
Route 4 : 73 148 62 56 49 39 131 137 19 18 124 114 94 93 30 37 112 45 120 105 7 29 82 104 
Route 5 : 38 113 24 67 99 61 136 8 83 15 90 142 
Route 6 : 16 75 25 150 44 91 100 34 119 109 
Route 7 : 58 133 36 72 147 111 
Route 8 : 
Route 9 : 
Route 10 : 
Route 11 : 
Route 12 : 
Route 13 : 
Route 14 : 
Route 15 : 
Route 16 : 
Route 17 : 
Route 18 : 
Route 19 : 
Route 20 : 
Route 21 : 

--------------------------------------------------------------------------------(Solver execution current time: 12.17505669593811)
[INFO] Starting OriginalPerturbation
--------------------------------------------------------------------------------(Solver execution current time: 16.216553211212158)
[SOLUTION]
Original Perturbation
Exec Time: 4.043039560317993
obj_value: -68; obj_routes: 31000.0
Route 1 : 32 55 40 1 130 115 13 53 14 107 76 22 48 88 89 70 2 128 123 145 63 77 138 97 
Route 2 : 6 33 52 42 81 108 10 60 135 11 117 68 31 41 127 106 116 86 51 126 85 143 23 46 121 69 144 5 98 80 
Route 3 : 9 4 3 84 59 12 27 87 79 134 78 54 28 103 102 129 43 65 118 47 140 122 
Route 4 : 73 148 62 56 49 39 131 137 19 18 124 114 94 93 30 45 120 50 125 105 7 29 82 104 
Route 5 : 24 38 113 34 99 61 136 109 
Route 6 : 16 15 44 91 8 83 119 90 
Route 7 : 35 67 64 142 139 110 
Route 8 : 25 100 72 147 
Route 9 : 58 74 149 133 37 112 36 111 
Route 10 : 75 150 
Route 11 : 
Route 12 : 
Route 13 : 
Route 14 : 
Route 15 : 
Route 16 : 
Route 17 : 
Route 18 : 
Route 19 : 
Route 20 : 
Route 21 : 

--------------------------------------------------------------------------------(Solver execution current time: 16.218048810958862)
[SOLUTION]
SBMath
IT: 1
ITs witout improving: 1
IT time: 5.201216459274292
Time since begin: 5.202335596084595
obj_value: -68; obj_routes: 31000.0
Route 1 : 32 55 40 1 130 115 13 53 14 107 76 22 48 88 89 70 2 128 123 145 63 77 138 97 
Route 2 : 6 33 52 42 81 108 10 60 135 11 117 68 31 41 127 106 116 86 51 126 85 143 23 46 121 69 144 5 98 80 
Route 3 : 9 4 3 84 59 12 27 87 79 134 78 54 28 103 102 129 43 65 118 47 140 122 
Route 4 : 73 148 62 56 49 39 131 137 19 18 124 114 94 93 30 45 120 50 125 105 7 29 82 104 
Route 5 : 24 38 113 34 99 61 136 109 
Route 6 : 16 15 44 91 8 83 119 90 
Route 7 : 35 67 64 142 139 110 
Route 8 : 25 100 72 147 
Route 9 : 58 74 149 133 37 112 36 111 
Route 10 : 75 150 
Route 11 : 
Route 12 : 
Route 13 : 
Route 14 : 
Route 15 : 
Route 16 : 
Route 17 : 
Route 18 : 
Route 19 : 
Route 20 : 
Route 21 : 

--------------------------------------------------------------------------------(Solver execution current time: 16.218289613723755)
[SOLUTION]
SBMath
IT: 1
ITs witout improving: 1
IT time: 5.201216459274292
Time since begin: 5.202335596084595
obj_value: -68; obj_routes: 29477.0
Route 1 : 32 55 40 1 130 115 13 53 14 107 76 22 48 88 89 70 2 128 123 145 63 77 138 97 50 125 64 139 
Route 2 : 6 33 52 42 81 108 10 60 135 11 117 68 31 41 127 106 116 86 51 126 85 143 74 23 149 46 121 69 35 144 5 98 80 110 
Route 3 : 9 4 3 84 59 12 27 87 79 134 78 54 28 103 102 129 43 65 118 47 140 122 
Route 4 : 73 148 62 56 49 39 131 137 19 18 124 114 94 93 30 37 112 45 120 105 7 29 82 104 
Route 5 : 38 113 24 67 99 61 136 8 83 15 90 142 
Route 6 : 16 75 25 150 44 91 100 34 119 109 
Route 7 : 58 133 36 72 147 111 
Route 8 : 
Route 9 : 
Route 10 : 
Route 11 : 
Route 12 : 
Route 13 : 
Route 14 : 
Route 15 : 
Route 16 : 
Route 17 : 
Route 18 : 
Route 19 : 
Route 20 : 
Route 21 : 

--------------------------------------------------------------------------------(Solver execution current time: 16.21854567527771)
[INFO] AGES EXCLUDED
--------------------------------------------------------------------------------(Solver execution current time: 16.220096349716187)
[INFO] Starting LNS
--------------------------------------------------------------------------------(Solver execution current time: 17.101017475128174)
[SOLUTION]
LNS
IT: 40
Exec Time: 0.8789222240447998
obj_value: -68; obj_routes: 31000.0
Route 1 : 32 55 40 1 130 115 13 53 14 107 76 22 48 88 89 70 2 128 123 145 63 77 138 97 
Route 2 : 6 33 52 42 81 108 10 60 135 11 117 68 31 41 127 106 116 86 51 126 85 143 23 46 121 69 144 5 98 80 
Route 3 : 9 4 3 84 59 12 27 87 79 134 78 54 28 103 102 129 43 65 118 47 140 122 
Route 4 : 73 148 62 56 49 39 131 137 19 18 124 114 94 93 30 45 120 50 125 105 7 29 82 104 
Route 5 : 24 38 113 34 99 61 136 109 
Route 6 : 16 15 44 91 8 83 119 90 
Route 7 : 35 67 64 142 139 110 
Route 8 : 25 100 72 147 
Route 9 : 58 74 149 133 37 112 36 111 
Route 10 : 75 150 
Route 11 : 
Route 12 : 
Route 13 : 
Route 14 : 
Route 15 : 
Route 16 : 
Route 17 : 
Route 18 : 
Route 19 : 
Route 20 : 
Route 21 : 

--------------------------------------------------------------------------------(Solver execution current time: 17.103896856307983)
[INFO] Starting PartitionMaxRequestsHF
--------------------------------------------------------------------------------(Solver execution current time: 17.128711938858032)
[SOLUTION]
PartitionMaxRequestsHF
Exec Time: 0.02473735809326172
obj_value: -68; obj_routes: 31000.0
Route 1 : 9 4 3 84 59 12 27 87 79 134 78 54 28 103 102 129 43 65 118 47 140 122 
Route 2 : 32 55 40 1 130 115 13 53 14 107 76 22 48 88 89 70 2 128 123 145 63 77 138 97 
Route 3 : 6 33 52 42 81 108 10 60 135 11 117 68 31 41 127 106 116 86 51 126 85 143 23 46 121 69 144 5 98 80 
Route 4 : 73 148 62 56 49 39 131 137 19 18 124 114 94 93 30 45 120 50 125 105 7 29 82 104 
Route 5 : 24 38 113 34 99 61 136 109 
Route 6 : 16 15 44 91 8 83 119 90 
Route 7 : 35 67 64 142 139 110 
Route 8 : 25 100 72 147 
Route 9 : 58 74 149 133 37 112 36 111 
Route 10 : 75 150 
Route 11 : 
Route 12 : 
Route 13 : 
Route 14 : 
Route 15 : 
Route 16 : 
Route 17 : 
Route 18 : 
Route 19 : 
Route 20 : 
Route 21 : 

--------------------------------------------------------------------------------(Solver execution current time: 17.130866765975952)
[INFO] Starting OriginalPerturbation
--------------------------------------------------------------------------------(Solver execution current time: 18.838829517364502)
[SOLUTION]
Original Perturbation
Exec Time: 1.709667444229126
obj_value: -68; obj_routes: 30871.0
Route 1 : 32 55 40 1 130 115 13 53 14 107 76 22 48 88 89 70 2 128 123 145 63 77 138 97 29 104 
Route 2 : 6 33 52 42 81 108 10 60 135 11 117 68 31 41 127 106 116 86 51 126 85 143 23 46 121 69 144 5 98 80 
Route 3 : 9 4 3 84 59 12 27 87 79 134 78 54 28 103 102 129 43 118 47 122 
Route 4 : 73 148 62 56 49 39 131 137 19 18 124 114 94 93 30 45 120 50 125 105 7 82 
Route 5 : 15 90 38 113 34 72 147 109 
Route 6 : 74 65 16 91 140 149 
Route 7 : 25 64 139 100 
Route 8 : 24 37 99 61 136 8 83 112 
Route 9 : 58 75 133 150 36 111 67 142 
Route 10 : 35 110 
Route 11 : 44 119 
Route 12 : 
Route 13 : 
Route 14 : 
Route 15 : 
Route 16 : 
Route 17 : 
Route 18 : 
Route 19 : 
Route 20 : 
Route 21 : 

--------------------------------------------------------------------------------(Solver execution current time: 18.8405122756958)
[SOLUTION]
SBMath
IT: 2
ITs witout improving: 2
IT time: 2.621974468231201
Time since begin: 7.824798107147217
obj_value: -68; obj_routes: 30871.0
Route 1 : 32 55 40 1 130 115 13 53 14 107 76 22 48 88 89 70 2 128 123 145 63 77 138 97 29 104 
Route 2 : 6 33 52 42 81 108 10 60 135 11 117 68 31 41 127 106 116 86 51 126 85 143 23 46 121 69 144 5 98 80 
Route 3 : 9 4 3 84 59 12 27 87 79 134 78 54 28 103 102 129 43 118 47 122 
Route 4 : 73 148 62 56 49 39 131 137 19 18 124 114 94 93 30 45 120 50 125 105 7 82 
Route 5 : 15 90 38 113 34 72 147 109 
Route 6 : 74 65 16 91 140 149 
Route 7 : 25 64 139 100 
Route 8 : 24 37 99 61 136 8 83 112 
Route 9 : 58 75 133 150 36 111 67 142 
Route 10 : 35 110 
Route 11 : 44 119 
Route 12 : 
Route 13 : 
Route 14 : 
Route 15 : 
Route 16 : 
Route 17 : 
Route 18 : 
Route 19 : 
Route 20 : 
Route 21 : 

--------------------------------------------------------------------------------(Solver execution current time: 18.84078025817871)
[SOLUTION]
SBMath
IT: 2
ITs witout improving: 2
IT time: 2.621974468231201
Time since begin: 7.824798107147217
obj_value: -68; obj_routes: 29477.0
Route 1 : 32 55 40 1 130 115 13 53 14 107 76 22 48 88 89 70 2 128 123 145 63 77 138 97 50 125 64 139 
Route 2 : 6 33 52 42 81 108 10 60 135 11 117 68 31 41 127 106 116 86 51 126 85 143 74 23 149 46 121 69 35 144 5 98 80 110 
Route 3 : 9 4 3 84 59 12 27 87 79 134 78 54 28 103 102 129 43 65 118 47 140 122 
Route 4 : 73 148 62 56 49 39 131 137 19 18 124 114 94 93 30 37 112 45 120 105 7 29 82 104 
Route 5 : 38 113 24 67 99 61 136 8 83 15 90 142 
Route 6 : 16 75 25 150 44 91 100 34 119 109 
Route 7 : 58 133 36 72 147 111 
Route 8 : 
Route 9 : 
Route 10 : 
Route 11 : 
Route 12 : 
Route 13 : 
Route 14 : 
Route 15 : 
Route 16 : 
Route 17 : 
Route 18 : 
Route 19 : 
Route 20 : 
Route 21 : 

--------------------------------------------------------------------------------(Solver execution current time: 18.84101104736328)
[INFO] AGES EXCLUDED
--------------------------------------------------------------------------------(Solver execution current time: 18.84259533882141)
[INFO] Starting LNS
--------------------------------------------------------------------------------(Solver execution current time: 19.78471803665161)
[SOLUTION]
LNS
IT: 40
Exec Time: 0.9401042461395264
obj_value: -68; obj_routes: 30871.0
Route 1 : 32 55 40 1 130 115 13 53 14 107 76 22 48 88 89 70 2 128 123 145 63 77 138 97 29 104 
Route 2 : 6 33 52 42 81 108 10 60 135 11 117 68 31 41 127 106 116 86 51 126 85 143 23 46 121 69 144 5 98 80 
Route 3 : 9 4 3 84 59 12 27 87 79 134 78 54 28 103 102 129 43 118 47 122 
Route 4 : 73 148 62 56 49 39 131 137 19 18 124 114 94 93 30 45 120 50 125 105 7 82 
Route 5 : 15 90 38 113 34 72 147 109 
Route 6 : 74 65 16 91 140 149 
Route 7 : 25 64 139 100 
Route 8 : 24 37 99 61 136 8 83 112 
Route 9 : 58 75 133 150 36 111 67 142 
Route 10 : 35 110 
Route 11 : 44 119 
Route 12 : 
Route 13 : 
Route 14 : 
Route 15 : 
Route 16 : 
Route 17 : 
Route 18 : 
Route 19 : 
Route 20 : 
Route 21 : 

--------------------------------------------------------------------------------(Solver execution current time: 19.787580966949463)
[INFO] Starting PartitionMaxRequestsHF
--------------------------------------------------------------------------------(Solver execution current time: 19.813130617141724)
[SOLUTION]
PartitionMaxRequestsHF
Exec Time: 0.02546858787536621
Improvedobj_value: -68; obj_routes: 29913.0
Route 1 : 32 55 40 1 130 115 13 53 14 107 76 22 48 88 89 70 2 128 123 145 63 77 138 97 
Route 2 : 6 33 52 42 81 108 10 60 135 11 117 68 31 41 127 106 116 86 51 126 85 143 23 46 121 69 144 5 98 80 
Route 3 : 73 148 62 56 49 39 131 137 19 18 124 114 94 93 30 45 120 50 125 105 7 29 82 104 
Route 4 : 9 4 3 84 59 12 27 87 79 134 78 54 28 103 102 129 43 118 47 122 
Route 5 : 15 90 38 113 34 72 147 109 
Route 6 : 74 65 16 91 140 149 
Route 7 : 25 64 139 100 
Route 8 : 24 37 99 61 136 8 83 112 
Route 9 : 58 75 133 150 36 111 67 142 
Route 10 : 35 110 
Route 11 : 44 119 
Route 12 : 
Route 13 : 
Route 14 : 
Route 15 : 
Route 16 : 
Route 17 : 
Route 18 : 
Route 19 : 
Route 20 : 
Route 21 : 

--------------------------------------------------------------------------------(Solver execution current time: 19.815136671066284)
[INFO] Starting OriginalPerturbation
--------------------------------------------------------------------------------(Solver execution current time: 21.893092393875122)
[SOLUTION]
Original Perturbation
Exec Time: 2.079496383666992
obj_value: -68; obj_routes: 33227.0
Route 1 : 32 55 40 1 130 115 13 53 14 107 76 22 48 88 89 70 2 128 123 145 63 77 138 97 29 104 
Route 2 : 6 33 52 42 81 108 10 60 135 11 117 68 31 41 127 106 116 86 51 126 85 143 23 46 121 5 98 80 
Route 3 : 9 4 3 84 59 12 27 87 79 134 78 54 28 103 102 129 30 105 43 118 47 122 
Route 4 : 73 148 62 56 49 39 131 137 19 18 124 114 94 93 69 50 125 7 82 144 
Route 5 : 75 150 38 113 74 149 72 147 
Route 6 : 24 16 91 99 
Route 7 : 25 64 139 100 
Route 8 : 15 65 90 44 35 140 110 119 
Route 9 : 37 112 45 8 83 120 
Route 10 : 67 142 36 111 
Route 11 : 58 133 
Route 12 : 61 136 34 109 
Route 13 : 
Route 14 : 
Route 15 : 
Route 16 : 
Route 17 : 
Route 18 : 
Route 19 : 
Route 20 : 
Route 21 : 

--------------------------------------------------------------------------------(Solver execution current time: 21.894771337509155)
[SOLUTION]
SBMath
IT: 3
ITs witout improving: 3
IT time: 3.053766965866089
Time since begin: 10.879057884216309
obj_value: -68; obj_routes: 33227.0
Route 1 : 32 55 40 1 130 115 13 53 14 107 76 22 48 88 89 70 2 128 123 145 63 77 138 97 29 104 
Route 2 : 6 33 52 42 81 108 10 60 135 11 117 68 31 41 127 106 116 86 51 126 85 143 23 46 121 5 98 80 
Route 3 : 9 4 3 84 59 12 27 87 79 134 78 54 28 103 102 129 30 105 43 118 47 122 
Route 4 : 73 148 62 56 49 39 131 137 19 18 124 114 94 93 69 50 125 7 82 144 
Route 5 : 75 150 38 113 74 149 72 147 
Route 6 : 24 16 91 99 
Route 7 : 25 64 139 100 
Route 8 : 15 65 90 44 35 140 110 119 
Route 9 : 37 112 45 8 83 120 
Route 10 : 67 142 36 111 
Route 11 : 58 133 
Route 12 : 61 136 34 109 
Route 13 : 
Route 14 : 
Route 15 : 
Route 16 : 
Route 17 : 
Route 18 : 
Route 19 : 
Route 20 : 
Route 21 : 

--------------------------------------------------------------------------------(Solver execution current time: 21.895047426223755)
[SOLUTION]
SBMath
IT: 3
ITs witout improving: 3
IT time: 3.053766965866089
Time since begin: 10.879057884216309
obj_value: -68; obj_routes: 29477.0
Route 1 : 32 55 40 1 130 115 13 53 14 107 76 22 48 88 89 70 2 128 123 145 63 77 138 97 50 125 64 139 
Route 2 : 6 33 52 42 81 108 10 60 135 11 117 68 31 41 127 106 116 86 51 126 85 143 74 23 149 46 121 69 35 144 5 98 80 110 
Route 3 : 9 4 3 84 59 12 27 87 79 134 78 54 28 103 102 129 43 65 118 47 140 122 
Route 4 : 73 148 62 56 49 39 131 137 19 18 124 114 94 93 30 37 112 45 120 105 7 29 82 104 
Route 5 : 38 113 24 67 99 61 136 8 83 15 90 142 
Route 6 : 16 75 25 150 44 91 100 34 119 109 
Route 7 : 58 133 36 72 147 111 
Route 8 : 
Route 9 : 
Route 10 : 
Route 11 : 
Route 12 : 
Route 13 : 
Route 14 : 
Route 15 : 
Route 16 : 
Route 17 : 
Route 18 : 
Route 19 : 
Route 20 : 
Route 21 : 

--------------------------------------------------------------------------------(Solver execution current time: 21.895389795303345)
[INFO] AGES EXCLUDED
--------------------------------------------------------------------------------(Solver execution current time: 21.89770269393921)
[INFO] Starting LNS
--------------------------------------------------------------------------------(Solver execution current time: 22.647459030151367)
[SOLUTION]
LNS
IT: 40
Exec Time: 0.7467172145843506
obj_value: -68; obj_routes: 33227.0
Route 1 : 32 55 40 1 130 115 13 53 14 107 76 22 48 88 89 70 2 128 123 145 63 77 138 97 29 104 
Route 2 : 6 33 52 42 81 108 10 60 135 11 117 68 31 41 127 106 116 86 51 126 85 143 23 46 121 5 98 80 
Route 3 : 9 4 3 84 59 12 27 87 79 134 78 54 28 103 102 129 30 105 43 118 47 122 
Route 4 : 73 148 62 56 49 39 131 137 19 18 124 114 94 93 69 50 125 7 82 144 
Route 5 : 75 150 38 113 74 149 72 147 
Route 6 : 24 16 91 99 
Route 7 : 25 64 139 100 
Route 8 : 15 65 90 44 35 140 110 119 
Route 9 : 37 112 45 8 83 120 
Route 10 : 67 142 36 111 
Route 11 : 58 133 
Route 12 : 61 136 34 109 
Route 13 : 
Route 14 : 
Route 15 : 
Route 16 : 
Route 17 : 
Route 18 : 
Route 19 : 
Route 20 : 
Route 21 : 

--------------------------------------------------------------------------------(Solver execution current time: 22.650235414505005)
[INFO] Starting PartitionMaxRequestsHF
--------------------------------------------------------------------------------(Solver execution current time: 22.678048372268677)
[SOLUTION]
PartitionMaxRequestsHF
Exec Time: 0.02774524688720703
obj_value: -68; obj_routes: 33227.0
Route 1 : 32 55 40 1 130 115 13 53 14 107 76 22 48 88 89 70 2 128 123 145 63 77 138 97 29 104 
Route 2 : 25 64 139 100 
Route 3 : 6 33 52 42 81 108 10 60 135 11 117 68 31 41 127 106 116 86 51 126 85 143 23 46 121 5 98 80 
Route 4 : 9 4 3 84 59 12 27 87 79 134 78 54 28 103 102 129 30 105 43 118 47 122 
Route 5 : 73 148 62 56 49 39 131 137 19 18 124 114 94 93 69 50 125 7 82 144 
Route 6 : 75 150 38 113 74 149 72 147 
Route 7 : 24 16 91 99 
Route 8 : 15 65 90 44 35 140 110 119 
Route 9 : 37 112 45 8 83 120 
Route 10 : 67 142 36 111 
Route 11 : 58 133 
Route 12 : 61 136 34 109 
Route 13 : 
Route 14 : 
Route 15 : 
Route 16 : 
Route 17 : 
Route 18 : 
Route 19 : 
Route 20 : 
Route 21 : 

--------------------------------------------------------------------------------(Solver execution current time: 22.680065155029297)
[INFO] Starting OriginalPerturbation
--------------------------------------------------------------------------------(Solver execution current time: 25.69740104675293)
[SOLUTION]
Original Perturbation
Exec Time: 3.018897771835327
obj_value: -68; obj_routes: 32466.0
Route 1 : 32 55 40 1 130 115 13 53 14 107 76 22 48 88 89 70 2 128 123 145 63 77 138 97 29 104 
Route 2 : 6 33 52 42 81 108 10 60 135 11 117 68 31 41 127 106 116 86 51 126 85 143 44 23 5 98 119 80 
Route 3 : 9 4 3 84 59 12 27 87 79 134 78 54 28 103 102 129 30 105 43 118 47 122 
Route 4 : 73 148 62 56 49 39 131 137 19 18 124 114 94 93 46 121 69 50 125 7 82 144 
Route 5 : 38 65 113 74 149 64 139 140 
Route 6 : 37 45 120 112 
Route 7 : 25 16 100 91 
Route 8 : 35 8 61 136 83 110 
Route 9 : 75 15 150 90 
Route 10 : 58 67 133 142 36 111 
Route 11 : 
Route 12 : 34 24 109 99 
Route 13 : 72 147 
Route 14 : 
Route 15 : 
Route 16 : 
Route 17 : 
Route 18 : 
Route 19 : 
Route 20 : 
Route 21 : 

--------------------------------------------------------------------------------(Solver execution current time: 25.698965311050415)
[SOLUTION]
SBMath
IT: 4
ITs witout improving: 4
IT time: 3.8035905361175537
Time since begin: 14.683251857757568
obj_value: -68; obj_routes: 32466.0
Route 1 : 32 55 40 1 130 115 13 53 14 107 76 22 48 88 89 70 2 128 123 145 63 77 138 97 29 104 
Route 2 : 6 33 52 42 81 108 10 60 135 11 117 68 31 41 127 106 116 86 51 126 85 143 44 23 5 98 119 80 
Route 3 : 9 4 3 84 59 12 27 87 79 134 78 54 28 103 102 129 30 105 43 118 47 122 
Route 4 : 73 148 62 56 49 39 131 137 19 18 124 114 94 93 46 121 69 50 125 7 82 144 
Route 5 : 38 65 113 74 149 64 139 140 
Route 6 : 37 45 120 112 
Route 7 : 25 16 100 91 
Route 8 : 35 8 61 136 83 110 
Route 9 : 75 15 150 90 
Route 10 : 58 67 133 142 36 111 
Route 11 : 
Route 12 : 34 24 109 99 
Route 13 : 72 147 
Route 14 : 
Route 15 : 
Route 16 : 
Route 17 : 
Route 18 : 
Route 19 : 
Route 20 : 
Route 21 : 

--------------------------------------------------------------------------------(Solver execution current time: 25.699198961257935)
[SOLUTION]
SBMath
IT: 4
ITs witout improving: 4
IT time: 3.8035905361175537
Time since begin: 14.683251857757568
obj_value: -68; obj_routes: 29477.0
Route 1 : 32 55 40 1 130 115 13 53 14 107 76 22 48 88 89 70 2 128 123 145 63 77 138 97 50 125 64 139 
Route 2 : 6 33 52 42 81 108 10 60 135 11 117 68 31 41 127 106 116 86 51 126 85 143 74 23 149 46 121 69 35 144 5 98 80 110 
Route 3 : 9 4 3 84 59 12 27 87 79 134 78 54 28 103 102 129 43 65 118 47 140 122 
Route 4 : 73 148 62 56 49 39 131 137 19 18 124 114 94 93 30 37 112 45 120 105 7 29 82 104 
Route 5 : 38 113 24 67 99 61 136 8 83 15 90 142 
Route 6 : 16 75 25 150 44 91 100 34 119 109 
Route 7 : 58 133 36 72 147 111 
Route 8 : 
Route 9 : 
Route 10 : 
Route 11 : 
Route 12 : 
Route 13 : 
Route 14 : 
Route 15 : 
Route 16 : 
Route 17 : 
Route 18 : 
Route 19 : 
Route 20 : 
Route 21 : 

--------------------------------------------------------------------------------(Solver execution current time: 25.699445724487305)
[INFO] AGES EXCLUDED
--------------------------------------------------------------------------------(Solver execution current time: 25.70104455947876)
[INFO] Starting LNS
--------------------------------------------------------------------------------(Solver execution current time: 26.389660120010376)
[SOLUTION]
LNS
IT: 40
Exec Time: 0.6866252422332764
obj_value: -68; obj_routes: 32466.0
Route 1 : 32 55 40 1 130 115 13 53 14 107 76 22 48 88 89 70 2 128 123 145 63 77 138 97 29 104 
Route 2 : 6 33 52 42 81 108 10 60 135 11 117 68 31 41 127 106 116 86 51 126 85 143 44 23 5 98 119 80 
Route 3 : 9 4 3 84 59 12 27 87 79 134 78 54 28 103 102 129 30 105 43 118 47 122 
Route 4 : 73 148 62 56 49 39 131 137 19 18 124 114 94 93 46 121 69 50 125 7 82 144 
Route 5 : 38 65 113 74 149 64 139 140 
Route 6 : 37 45 120 112 
Route 7 : 25 16 100 91 
Route 8 : 35 8 61 136 83 110 
Route 9 : 75 15 150 90 
Route 10 : 58 67 133 142 36 111 
Route 11 : 
Route 12 : 34 24 109 99 
Route 13 : 72 147 
Route 14 : 
Route 15 : 
Route 16 : 
Route 17 : 
Route 18 : 
Route 19 : 
Route 20 : 
Route 21 : 

--------------------------------------------------------------------------------(Solver execution current time: 26.392346382141113)
[INFO] Starting PartitionMaxRequestsHF
--------------------------------------------------------------------------------(Solver execution current time: 26.422986030578613)
[SOLUTION]
PartitionMaxRequestsHF
Exec Time: 0.030579805374145508
obj_value: -68; obj_routes: 32466.0
Route 1 : 32 55 40 1 130 115 13 53 14 107 76 22 48 88 89 70 2 128 123 145 63 77 138 97 29 104 
Route 2 : 9 4 3 84 59 12 27 87 79 134 78 54 28 103 102 129 30 105 43 118 47 122 
Route 3 : 6 33 52 42 81 108 10 60 135 11 117 68 31 41 127 106 116 86 51 126 85 143 44 23 5 98 119 80 
Route 4 : 73 148 62 56 49 39 131 137 19 18 124 114 94 93 46 121 69 50 125 7 82 144 
Route 5 : 38 65 113 74 149 64 139 140 
Route 6 : 37 45 120 112 
Route 7 : 25 16 100 91 
Route 8 : 35 8 61 136 83 110 
Route 9 : 75 15 150 90 
Route 10 : 58 67 133 142 36 111 
Route 11 : 34 24 109 99 
Route 12 : 72 147 
Route 13 : 
Route 14 : 
Route 15 : 
Route 16 : 
Route 17 : 
Route 18 : 
Route 19 : 
Route 20 : 
Route 21 : 

--------------------------------------------------------------------------------(Solver execution current time: 26.425092458724976)
[INFO] Starting OriginalPerturbation
--------------------------------------------------------------------------------(Solver execution current time: 29.011715173721313)
[SOLUTION]
Original Perturbation
Exec Time: 2.588202953338623
obj_value: -68; obj_routes: 31927.0
Route 1 : 32 55 40 1 130 115 13 53 14 107 76 22 48 88 89 70 2 128 123 145 63 77 138 97 29 104 
Route 2 : 6 33 52 42 81 108 10 60 135 11 117 68 31 41 127 106 116 86 51 126 85 143 44 23 5 36 98 119 111 80 
Route 3 : 9 4 3 84 59 12 27 87 79 134 78 54 28 103 102 129 30 105 43 118 47 122 
Route 4 : 73 148 62 56 49 39 131 137 19 18 124 114 94 93 46 121 69 50 125 34 144 109 
Route 5 : 38 65 113 140 
Route 6 : 64 37 139 112 
Route 7 : 25 100 
Route 8 : 75 150 45 120 
Route 9 : 74 24 149 99 72 147 
Route 10 : 58 67 133 7 35 82 142 110 
Route 11 : 15 16 90 91 
Route 12 : 
Route 13 : 61 136 
Route 14 : 8 83 
Route 15 : 
Route 16 : 
Route 17 : 
Route 18 : 
Route 19 : 
Route 20 : 
Route 21 : 

--------------------------------------------------------------------------------(Solver execution current time: 29.013963222503662)
[SOLUTION]
SBMath
IT: 5
ITs witout improving: 5
IT time: 3.314521074295044
Time since begin: 17.9982488155365
obj_value: -68; obj_routes: 31927.0
Route 1 : 32 55 40 1 130 115 13 53 14 107 76 22 48 88 89 70 2 128 123 145 63 77 138 97 29 104 
Route 2 : 6 33 52 42 81 108 10 60 135 11 117 68 31 41 127 106 116 86 51 126 85 143 44 23 5 36 98 119 111 80 
Route 3 : 9 4 3 84 59 12 27 87 79 134 78 54 28 103 102 129 30 105 43 118 47 122 
Route 4 : 73 148 62 56 49 39 131 137 19 18 124 114 94 93 46 121 69 50 125 34 144 109 
Route 5 : 38 65 113 140 
Route 6 : 64 37 139 112 
Route 7 : 25 100 
Route 8 : 75 150 45 120 
Route 9 : 74 24 149 99 72 147 
Route 10 : 58 67 133 7 35 82 142 110 
Route 11 : 15 16 90 91 
Route 12 : 
Route 13 : 61 136 
Route 14 : 8 83 
Route 15 : 
Route 16 : 
Route 17 : 
Route 18 : 
Route 19 : 
Route 20 : 
Route 21 : 

--------------------------------------------------------------------------------(Solver execution current time: 29.01430058479309)
[SOLUTION]
SBMath
IT: 5
ITs witout improving: 5
IT time: 3.314521074295044
Time since begin: 17.9982488155365
obj_value: -68; obj_routes: 29477.0
Route 1 : 32 55 40 1 130 115 13 53 14 107 76 22 48 88 89 70 2 128 123 145 63 77 138 97 50 125 64 139 
Route 2 : 6 33 52 42 81 108 10 60 135 11 117 68 31 41 127 106 116 86 51 126 85 143 74 23 149 46 121 69 35 144 5 98 80 110 
Route 3 : 9 4 3 84 59 12 27 87 79 134 78 54 28 103 102 129 43 65 118 47 140 122 
Route 4 : 73 148 62 56 49 39 131 137 19 18 124 114 94 93 30 37 112 45 120 105 7 29 82 104 
Route 5 : 38 113 24 67 99 61 136 8 83 15 90 142 
Route 6 : 16 75 25 150 44 91 100 34 119 109 
Route 7 : 58 133 36 72 147 111 
Route 8 : 
Route 9 : 
Route 10 : 
Route 11 : 
Route 12 : 
Route 13 : 
Route 14 : 
Route 15 : 
Route 16 : 
Route 17 : 
Route 18 : 
Route 19 : 
Route 20 : 
Route 21 : 

--------------------------------------------------------------------------------(Solver execution current time: 29.014562845230103)
[INFO] AGES EXCLUDED
--------------------------------------------------------------------------------(Solver execution current time: 29.016334295272827)
[INFO] Starting LNS
--------------------------------------------------------------------------------(Solver execution current time: 29.96501111984253)
[SOLUTION]
LNS
IT: 40
Exec Time: 0.9464998245239258
obj_value: -68; obj_routes: 31927.0
Route 1 : 32 55 40 1 130 115 13 53 14 107 76 22 48 88 89 70 2 128 123 145 63 77 138 97 29 104 
Route 2 : 6 33 52 42 81 108 10 60 135 11 117 68 31 41 127 106 116 86 51 126 85 143 44 23 5 36 98 119 111 80 
Route 3 : 9 4 3 84 59 12 27 87 79 134 78 54 28 103 102 129 30 105 43 118 47 122 
Route 4 : 73 148 62 56 49 39 131 137 19 18 124 114 94 93 46 121 69 50 125 34 144 109 
Route 5 : 38 65 113 140 
Route 6 : 64 37 139 112 
Route 7 : 25 100 
Route 8 : 75 150 45 120 
Route 9 : 74 24 149 99 72 147 
Route 10 : 58 67 133 7 35 82 142 110 
Route 11 : 15 16 90 91 
Route 12 : 
Route 13 : 61 136 
Route 14 : 8 83 
Route 15 : 
Route 16 : 
Route 17 : 
Route 18 : 
Route 19 : 
Route 20 : 
Route 21 : 

--------------------------------------------------------------------------------(Solver execution current time: 29.968591451644897)
[INFO] Starting PartitionMaxRequestsHF
--------------------------------------------------------------------------------(Solver execution current time: 30.000943899154663)
[SOLUTION]
PartitionMaxRequestsHF
Exec Time: 0.032202959060668945
obj_value: -68; obj_routes: 31927.0
Route 1 : 32 55 40 1 130 115 13 53 14 107 76 22 48 88 89 70 2 128 123 145 63 77 138 97 29 104 
Route 2 : 9 4 3 84 59 12 27 87 79 134 78 54 28 103 102 129 30 105 43 118 47 122 
Route 3 : 6 33 52 42 81 108 10 60 135 11 117 68 31 41 127 106 116 86 51 126 85 143 44 23 5 36 98 119 111 80 
Route 4 : 73 148 62 56 49 39 131 137 19 18 124 114 94 93 46 121 69 50 125 34 144 109 
Route 5 : 38 65 113 140 
Route 6 : 64 37 139 112 
Route 7 : 25 100 
Route 8 : 75 150 45 120 
Route 9 : 74 24 149 99 72 147 
Route 10 : 58 67 133 7 35 82 142 110 
Route 11 : 15 16 90 91 
Route 12 : 61 136 
Route 13 : 8 83 
Route 14 : 
Route 15 : 
Route 16 : 
Route 17 : 
Route 18 : 
Route 19 : 
Route 20 : 
Route 21 : 

--------------------------------------------------------------------------------(Solver execution current time: 30.001667737960815)
[WARNING] Time Limit Exceeded
--------------------------------------------------------------------------------(Solver execution current time: 30.001752614974976)
[WARNING] Searching current best solution.
--------------------------------------------------------------------------------(Solver execution current time: 30.004630088806152)
[INFO] Algorithm execution time : 30.00539493560791
--------------------------------------------------------------------------------(Solver execution current time: 30.00653886795044)
[SOLUTION]
Final Solution Verification
====================================
Constraints verification: 
Homogenous Capacity Constraint OK
Time Windwos Constraint OK
Pickup and Delivery Constraint OK
Fixed Requests Constraint OK
Limited Fleet Constraint OK
Heterogeneous Fleet Constraint OK
====================================
Obj Func verification: 
SOLUTION COST OK
------------------------------------
ROUTES TOTAL COST OK
------------------------------------
REQUESTS TOTAL COST OK
------------------------------------
OBJECTIVE VALUE: -68
ROUTES VALUE: 29477.0
------------------------------------

Best Solution: 
obj_value: -68; obj_routes: 29477.0
Route 1 : 32 55 40 1 130 115 13 53 14 107 76 22 48 88 89 70 2 128 123 145 63 77 138 97 50 125 64 139 
Route 2 : 6 33 52 42 81 108 10 60 135 11 117 68 31 41 127 106 116 86 51 126 85 143 74 23 149 46 121 69 35 144 5 98 80 110 
Route 3 : 9 4 3 84 59 12 27 87 79 134 78 54 28 103 102 129 43 65 118 47 140 122 
Route 4 : 73 148 62 56 49 39 131 137 19 18 124 114 94 93 30 37 112 45 120 105 7 29 82 104 
Route 5 : 38 113 24 67 99 61 136 8 83 15 90 142 
Route 6 : 16 75 25 150 44 91 100 34 119 109 
Route 7 : 58 133 36 72 147 111 
Route 8 : 
Route 9 : 
Route 10 : 
Route 11 : 
Route 12 : 
Route 13 : 
Route 14 : 
Route 15 : 
Route 16 : 
Route 17 : 
Route 18 : 
Route 19 : 
Route 20 : 
Route 21 : 

--------------------------------------------------------------------------------